variable up equal 1.0e-6
 
# Define the amount of random jiggle for atoms
# This prevents atoms from staying on saddle points
variable atomjiggle equal 1.0e-5
variable seed equal 12345

# real units, elastic constants in GPa
units		real
variable cfac equal 1.01325e-4
variable cunits string GPa

# Define minimization parameters
variable etol equal 0.0 
variable ftol equal 1.0e-10
variable maxiter equal 100
variable maxeval equal 1000
variable dmax equal 1.0e-2

# Initialization
dimension       3
boundary        p p p
atom_style      full
timestep        0.5   # fs