
include init.in

# Compute initial state

include potential.in
thermo_style custom step temp pe press density
run ${nequil}

# Run dynamics

include potential.in
include output.in

run ${nrun}

# Output final values

include final_output.in
