
# set log file
log log.elastic

# Define MD parameters
variable nevery equal 10                  # sampling interval
variable nrepeat equal 10                 # times to use input values for calculating averages
variable nfreq equal ${nevery}*${nrepeat} # length of one average
variable nthermo equal ${nfreq}           # interval for thermo output
variable nequil equal 30*${nthermo}       # length of equilibration run
variable nrun equal 10*${nthermo}          # length of equilibrated run
variable temp equal 300.0                # temperature of initial sample
variable timestep equal 0.5               # timestep
variable adiabatic equal 2                # adiabatic (1) or isothermal (2)
variable tdamp equal 50.0                 # time constant for thermostat
variable seed index 123457                # seed for thermostat
variable thermostat index 1               # 0 if NVE, 1 if NVT
variable delta index 1.0e-6               # Born numdiff strain magnitude 

# read initial structure
units           real
dimension       3
boundary        p p p
atom_style      full

# read initial structure
read_data 333SiO2-1-UFF-a.data
