# Initialization
units           real
dimension       3
boundary        p p p
atom_style      full
timestep        0.5   # fs

# Define MD parameters
variable nevery equal 10                  # sampling interval
variable nrepeat equal 10                 # number of samples
variable nfreq equal ${nevery}*${nrepeat} # length of one average
variable nthermo equal ${nfreq}           # interval for thermo output
# 1 ps : 1e3 fs / 0.5 fs = 2e3 steps
variable nequil equal 30*${nthermo}       # steps of equilibration run 10
variable nrun equal 30*${nthermo}          # stpes of equilibrated run 10
variable temp equal 300.0                # temperature of initial sample
variable tdamp equal 50.0                 # time constant for thermostat
variable seed equal 123456                # seed for thermostat
variable ufac equal 1.01325e-4         # pressure unit conversion, from atm to Gpa
variable up equal 0.01                  # the deformation magnitude 2.0e-2

# Read the initial sctructure
# box tilt large
variable structure string 333U-50C-26-vasp
read_data       ${structure}.data

# Energy minimization
print "*****Minimization starts.*****"
minimize 1.0e-6 1.0e-6 100 1000
min_style cg
# Save the optimized structure
write_data ${structure}_opt.data
velocity        all create ${temp} ${seed} dist gaussian

# Equilibration
include ff.mod.lmp
if "$(is_defined(fix,avgp))" then "unfix avgp"
if "$(is_defined(fix,avgl))" then "unfix avgl"
run ${nequil}
# Save the equilibrated structure
write_data ${structure}_eq.data

# use tmp to save initial length and tilt
variable tmp equal lx
variable lx0 equal ${tmp}
variable tmp equal ly
variable ly0 equal ${tmp}
variable tmp equal lz
variable lz0 equal ${tmp}

variable tmp equal yz
variable yz0 equal ${tmp}
variable tmp equal xz
variable xz0 equal ${tmp}
variable tmp equal xy
variable xy0 equal ${tmp}

# Write restart
write_restart equil.res

# dir: direction
# uxx Perturbation
variable dir equal 1
include displace.mod.lmp
# uyy Perturbation
variable dir equal 2
include displace.mod.lmp
# uzz Perturbation
variable dir equal 3
include displace.mod.lmp
# uyz Perturbation
variable dir equal 4
include displace.mod.lmp
# uxz Perturbation
variable dir equal 5
include displace.mod.lmp
# uxy Perturbation
variable dir equal 6
include displace.mod.lmp

# Calc and output
# include calc.mod.lmp

