# Initialization
units           real
dimension       3
boundary        p p p
atom_style      full

variable       timestep equal 0.5   # fs
variable       T equal 300.0   # low temperature
variable       Td equal 100*${timestep}  # damping time
variable       P equal 1.0  # pressure
variable       Pd equal 10*${Td}  # pressure

variable       nevery equal 1000
variable       nrepeat equal 1
variable       nfreq equal ${nevery}*${nrepeat}
variable       nthermo equal ${nfreq}/10
variable       nequil equal 200*${nthermo}  # 2000: 10 ps

variable       seed string 123456  
variable       structure string 333-RV-31
variable       FF string "* * SiOCHN_2018.ff C H O Si"          # force field args for pair_coeff
# pair_coeff * * CHONSSi.ff C H O Si
# pair_coeff * * CHOSiNa.ff C H O Si
# pair_coeff * * SiOCHN_2018.ff C H O Si
# pair_coeff * * PDMSDecomp.ff C H O Si
# pair_coeff * * CHONSi.ff C H O Si
# pair_coeff * * CHOFe.ff O Si

timestep        ${timestep}   

# box tilt large
# Read the initial sctructure
read_data       ${structure}.data

# Assign the force field 
pair_style reaxff NULL safezone 3.0 mincap 150
pair_coeff ${FF}
# Charge equilibration for ReaxFF
fix myqeq all qeq/reaxff 1 0.0 10.0 1.0e-6 reaxff maxiter 400

neighbor        2 bin
neigh_modify    every 10 delay 0 check yes 

# Energy minimization
print "*****Minimization starts.*****"
# Print system info
thermo          ${nthermo}
thermo_style    custom step temp press density vol pe
dump dump_opt all custom 1 dump/dump_opt.lammpstrj id type q x y z
minimize 1.0e-6 1.0e-6 100 1000
min_style cg
# Save the optimized structure
write_data ${structure}_opt.data
undump dump_opt
reset_timestep 0

velocity        all create ${T} ${seed} dist gaussian
# equilibration at low T
print "##### Equilibration starts.##### "
velocity        all create ${T} 12345
# fix             equil1 all nvt temp ${T} ${T} ${Td} 
fix             equil1 all npt temp ${T} ${T} ${Td} tri ${P} ${P} ${Pd}

# out put bonds and species information
fix bondinfo all reaxff/bonds ${nfreq} bonds/bonds.reaxff
# fix speciesinfo all reaxff/species ${nevery} ${nrepeat} ${nthermo} bonds/species.out

# compute MSD and RDF
compute msd1 all msd
fix myMSD all ave/time 10 10 ${nthermo} c_msd1[1] c_msd1[2] c_msd1[3] c_msd1[4] c_thermo_temp &
    file msd.out &
    title2 "# TimeStep MSD_X MSD_Y MSD_Z MSD_Total Temperture"
# C-C C-Si Si-O C-H Si-Si
compute rdf1 all rdf 100  1 1  1 4  3 4  1 2 cutoff 5.0
fix myRDF all ave/time ${nevery} ${nrepeat} ${nfreq} c_rdf1[*] &
    file rdf.out mode vector &
    title3 "# Row r g1(r) coor1(r) ..."

thermo_style    custom step temp press pe etotal
# Save trajectory
dump dump_eq all custom/gz ${nthermo} dump/dump_eq.lammpstrj.gz id type x y z q

run ${nequil}
# Save the equilibrated structure
write_data ${structure}_eq.data
undump dump_eq
unfix myMSD
unfix myRDF

